GLPSOL--GLPK LP/MIP Solver 5.0
Parameter(s) specified in the command line:
 --lp ../modeles/20_279.lp --log 20_279.log
Reading problem data from '../modeles/20_279.lp'...
5661 rows, 11200 columns, 39160 non-zeros
5580 integer variables, all of which are binary
16887 lines were read
GLPK Integer Optimizer 5.0
5661 rows, 11200 columns, 39160 non-zeros
5580 integer variables, all of which are binary
Preprocessing...
5560 constraint coefficient(s) were reduced
5661 rows, 11180 columns, 39140 non-zeros
5580 integer variables, all of which are binary
Scaling...
 A: min|aij| =  5.139e-05  max|aij| =  4.000e+00  ratio =  7.784e+04
GM: min|aij| =  5.987e-02  max|aij| =  1.670e+01  ratio =  2.790e+02
EQ: min|aij| =  3.584e-03  max|aij| =  1.000e+00  ratio =  2.790e+02
2N: min|aij| =  3.289e-03  max|aij| =  1.748e+00  ratio =  5.316e+02
Constructing initial basis...
Size of triangular part is 5661
Solving LP relaxation...
GLPK Simplex Optimizer 5.0
5661 rows, 11180 columns, 39140 non-zeros
      0: obj =   4.000000000e+01 inf =   9.950e+01 (41)
Perturbing LP to avoid stalling [199]...
    339: obj =   4.994925488e-01 inf =   0.000e+00 (0)
Removing LP perturbation [1160]...
*  1160: obj =  -4.471354167e+00 inf =   2.043e-13 (0) 1
OPTIMAL LP SOLUTION FOUND
Integer optimization begins...
Long-step dual simplex will be used
+  1160: mip =     not found yet >=              -inf        (1; 0)
+  1249: >>>>>  -4.471354167e+00 >=  -4.471354167e+00 < 0.1% (85; 0)
+  1249: mip =  -4.471354167e+00 >=     tree is empty   0.0% (0; 169)
INTEGER OPTIMAL SOLUTION FOUND
Time used:   1.2 secs
Memory used: 16.1 Mb (16929734 bytes)
